[[53, 14, 59, 11, 66, 65, 38, 10, 58, 72, 31, 39, 9, 25, 55, 18, 50, 24, 49, 32, 44, 3, 51, 16], [33, 63, 23, 56, 41, 43, 42, 64, 22, 73, 62, 28, 74, 61, 21, 47, 69, 36, 71, 60, 70], [20, 37, 57, 15, 5, 29, 48, 45, 30, 2, 4, 68, 6, 75, 76, 17, 40, 12, 26, 67, 46, 34, 52, 27, 13, 54, 19, 8, 7, 35]]